
Gurobi 12.0.3 (linux64, gurobi_cl) logging started Tue Oct 21 16:00:54 2025

Set parameter Username
Set parameter LicenseID to value 2719952
Set parameter LogFile to value "gurobi.log"
Using license file /media/lolluckestar/D/Gurobi/gurobi.lic
Academic license - for non-commercial use only - expires 2026-10-08

Gurobi Optimizer version 12.0.3 build v12.0.3rc0 (linux64 - "Ubuntu 24.04.2 LTS")
Copyright (c) 2025, Gurobi Optimization, LLC

Read LP format model from file problem_a.lp
Reading time = 0.00 seconds
: 3 rows, 4 columns, 11 nonzeros

Using Gurobi shared library /media/lolluckestar/D/Gurobi/gurobi1203/linux64/lib/libgurobi.so.12.0.3

CPU model: 11th Gen Intel(R) Core(TM) i7-1165G7 @ 2.80GHz, instruction set [SSE2|AVX|AVX2|AVX512]
Thread count: 4 physical cores, 8 logical processors, using up to 8 threads

Optimize a model with 3 rows, 4 columns and 11 nonzeros
Model fingerprint: 0x278aa352
Coefficient statistics:
  Matrix range     [1e+00, 4e+00]
  Objective range  [1e+00, 5e+00]
  Bounds range     [0e+00, 0e+00]
  RHS range        [5e+00, 8e+00]
Presolve removed 0 rows and 1 columns
Presolve time: 0.02s
Presolved: 3 rows, 3 columns, 8 nonzeros

Iteration    Objective       Primal Inf.    Dual Inf.      Time
       0   -1.6000000e+01   2.996500e+00   0.000000e+00      0s
       3   -1.2000000e+01   0.000000e+00   0.000000e+00      0s

Solved in 3 iterations and 0.02 seconds (0.00 work units)
Optimal objective -1.200000000e+01

Gurobi 12.0.3 (linux64, gurobi_cl) logging started Tue Oct 21 16:01:02 2025

Set parameter Username
Set parameter LicenseID to value 2719952
Set parameter LogFile to value "gurobi.log"
Using license file /media/lolluckestar/D/Gurobi/gurobi.lic
Academic license - for non-commercial use only - expires 2026-10-08

Gurobi Optimizer version 12.0.3 build v12.0.3rc0 (linux64 - "Ubuntu 24.04.2 LTS")
Copyright (c) 2025, Gurobi Optimization, LLC

Read LP format model from file problem_b.lp
Reading time = 0.00 seconds
: 3 rows, 3 columns, 9 nonzeros

Using Gurobi shared library /media/lolluckestar/D/Gurobi/gurobi1203/linux64/lib/libgurobi.so.12.0.3

CPU model: 11th Gen Intel(R) Core(TM) i7-1165G7 @ 2.80GHz, instruction set [SSE2|AVX|AVX2|AVX512]
Thread count: 4 physical cores, 8 logical processors, using up to 8 threads

Optimize a model with 3 rows, 3 columns and 9 nonzeros
Model fingerprint: 0x9dd9d7ae
Coefficient statistics:
  Matrix range     [1e+00, 4e+00]
  Objective range  [1e+00, 6e+00]
  Bounds range     [0e+00, 0e+00]
  RHS range        [6e+00, 1e+01]
Presolve removed 0 rows and 1 columns
Presolve time: 0.00s
Presolved: 3 rows, 2 columns, 6 nonzeros

Iteration    Objective       Primal Inf.    Dual Inf.      Time
       0   -3.6000000e+01   2.497500e+00   0.000000e+00      0s
       3   -2.4000000e+01   0.000000e+00   0.000000e+00      0s

Solved in 3 iterations and 0.00 seconds (0.00 work units)
Optimal objective -2.400000000e+01
